    pair_coeff  * *  SiO.1990.vashishta Si O
