  pair_coeff  * *  SiO2.vashishta Si O
  pair_modify table 16
  pair_modify tabinner 0.1
    pair_coeff  * *  SiO2.vashishta Si O
    pair_modify table 16
    pair_modify tabinner 0.1
